clingo version 5.2.2
Reading from ...n171_r6_s45_ps3_pr180_u540_o12_N010.lp ...
Solving...
Solving...
Solving...
Solving...
Solving...
Solving...
Solving...
Solving...
Solving...
Solving...
Solving...
Solving...
Solving...
Solving...
Solving...
Solving...
Solving...
Solving...
Solving...
Solving...
Solving...
Solving...
Solving...
Solving...
Solving...
Solving...
Solving...
Solving...
Solving...
Solving...
Solving...
Solving...
Solving...
Solving...
Solving...
Solving...
Solving...
Solving...
Solving...
Solving...
Solving...
Solving...
Solving...
Solving...
Solving...
UNKNOWN

TIME LIMIT   : 1
Models       : 0+
Calls        : 45
Time         : 1800.013s (Solving: 1743.34s 1st Model: 0.00s Unsat: 1002.65s)
CPU Time     : 1799.388s

Choices      : 4351787 
Conflicts    : 519949   (Analyzed: 519925)
Restarts     : 1648     (Average: 315.49 Last: 3277)
Problems     : 45       (Average Length: 2.00 Splits: 0)
Lemmas       : 519925   (Deleted: 465822)
  Binary     : 1471     (Ratio:   0.28%)
  Ternary    : 6771     (Ratio:   1.30%)
  Conflict   : 519925   (Average Length:  241.6 Ratio: 100.00%) 
  Loop       : 0        (Average Length:    0.0 Ratio:   0.00%) 
  Other      : 0        (Average Length:    0.0 Ratio:   0.00%) 
Backjumps    : 519925   (Average:  7.91 Max: 5187 Sum: 4110628)
  Executed   : 519742   (Average:  7.91 Max: 5187 Sum: 4110386 Ratio:  99.99%)
  Bounded    : 183      (Average:  1.32 Max:   2 Sum:    242 Ratio:   0.01%)

Rules        : 6406179  (Original: 5988985)
  Choice     : 308     
Atoms        : 730343  
Bodies       : 5839880  (Original: 5422685)
  Count      : 8976     (Original: 19111)
Equivalences : 1241154  (Atom=Atom: 262652 Body=Body: 11172 Other: 967330)
Tight        : Yes
Variables    : 2287307  (Eliminated:    0 Frozen: 322102)
Constraints  : 11582678 (Binary:  55.9% Ternary:  41.3% Other:   2.8%)

